43
14
0 15 16 17 18 19 22 26 27 29 31 33 35 37 39 41
1 15 16 17 18 19 20 23 24 25 27 30 31 32 39 40 41 42
2 14 15 17 19 20 25 26 31 36 37 39 40 41
3 15 17 18 19 20 22 23 26 27 28 35 37 39 41
4 17 18 20 22 23 25 27 30 35 38 39 40
5 15 17 22 23 27 28 30 31 32 34 36 38 39 40 41 42
6 17 18 20 24 25 26 31 32 38
7 19 20 22 23 25 26 33 35 37 40 41
8 16 19 23 28 29 32 34 35 39
9 15 16 17 21 31 32 37 38 41
10 15 20 27 35 40
11 19 23 27 34 38
12 25 28 31 42
13 16 18 35 39
